4209256633962500363507,12,1,2,014,1,1,2,02,15,1,2,03,15,1,2,06,3,1,2,08,11,1,2,011,13,1,2,04,7,1,2,07,10,1,2,03,5,1,2,014,3,1,2,011,14,1,2,06,3,1,2,010,2,1,2,013,7,1,2,015,9,1,2,09,12,1,2,04,4,1,2,08,3,1,2,010,11,1,2,015,1,1,2,04,8,1,2,011,14,1,2,011,13,1,2,06,3,1,2,011,5,1,2,06,13,1,2,012,6,1,2,014,14,1,2,05,10,1,2,010,6,1,2,013,10,1,2,014,4,1,2,08,9,1,2,08,9,1,2,05,13,1,2,07,9,1,2,014,12,1,2,010,10,1,2,04,3,1,2,06,12,1,2,015,8,1,2,05,12,1,2,011,6,1,2,07,13,1,2,06,2,1,2,04,4,1,2,014,10,1,2,013,6,1,2,013,3,1,2,0